SDVRP instances/custom_instances/p02_25_split0.vrp
NAME:p02_25_split
BEST_KNOWN: 0
COMMENT: 0
DIMENSION: 373
CAPACITY: 140
EDGE_WEIGHT_FORMAT: FUNCTION
EDGE_WEIGHT_TYPE: EXACT_2D
NODE_COORD_SECTION
1 0.00000 0.00000
2 -24 -24
3 -24 -24
4 -24 -24
5 -24 -24
6 10 -15
7 10 -15
8 -15 -39
9 -15 -39
10 -15 -39
11 13 16
12 13 16
13 11 -39
14 11 -39
15 11 -39
16 11 -39
17 11 -39
18 11 -39
19 -41 -41
20 -41 -41
21 -41 -41
22 -41 -41
23 -2 24
24 -2 24
25 -2 24
26 -2 24
27 -2 24
28 -44 -9
29 -44 -9
30 -44 -9
31 -44 -9
32 -44 -9
33 -44 -9
34 -44 -9
35 -44 -9
36 41 19
37 41 19
38 5 -13
39 5 -13
40 5 -13
41 -37 -16
42 -37 -16
43 -37 -16
44 -18 6
45 -18 6
46 -18 6
47 -18 6
48 -18 6
49 -6 -22
50 -6 -22
51 -11 4
52 -11 4
53 5 -28
54 5 -28
55 25 44
56 -48 -40
57 -48 -40
58 -48 -40
59 -48 -40
60 -48 -40
61 -48 -40
62 27 -22
63 27 -22
64 27 -22
65 27 -22
66 27 -22
67 27 -22
68 -41 -40
69 -41 -40
70 -41 -40
71 -41 -40
72 -41 -40
73 44 -6
74 44 -6
75 44 -6
76 -40 -11
77 -40 -11
78 -40 -11
79 -40 -11
80 -40 -11
81 -40 -11
82 -40 -11
83 35 -29
84 35 -29
85 35 -29
86 35 -29
87 35 -29
88 35 -29
89 35 -29
90 35 -29
91 24 -4
92 24 -4
93 24 -4
94 24 -4
95 24 -4
96 24 -4
97 24 -4
98 35 -36
99 35 -36
100 35 -36
101 35 -36
102 35 -36
103 -49 -21
104 -49 -21
105 -49 -21
106 -49 -21
107 -42 24
108 -42 24
109 -42 24
110 -42 24
111 -42 24
112 -35 -49
113 -35 -49
114 -35 -49
115 -35 -49
116 -35 -49
117 43 5
118 43 5
119 43 5
120 43 5
121 43 5
122 43 5
123 43 5
124 -6 -8
125 -6 -8
126 -6 -8
127 -6 -8
128 -6 -8
129 -6 -8
130 -33 -41
131 -33 -41
132 -33 -41
133 -33 -41
134 -35 16
135 -35 16
136 -35 16
137 -35 16
138 -35 16
139 32 -45
140 32 -45
141 32 -45
142 20 -16
143 20 -16
144 -12 50
145 -12 50
146 -12 50
147 -12 50
148 -12 50
149 -12 50
150 -12 50
151 -12 50
152 -49 41
153 -49 41
154 -49 41
155 -49 41
156 -49 41
157 -49 41
158 36 43
159 36 43
160 36 43
161 36 43
162 36 43
163 -7 22
164 -7 22
165 -7 22
166 -7 22
167 -7 22
168 -7 22
169 -7 22
170 -10 -41
171 -10 -41
172 -10 -41
173 -10 -41
174 -10 -41
175 -10 -41
176 33 -11
177 33 -11
178 33 -11
179 33 -11
180 33 -11
181 33 -11
182 33 -11
183 33 -11
184 33 -11
185 43 -37
186 43 -37
187 43 -37
188 43 -37
189 43 -37
190 43 -37
191 43 -37
192 43 -37
193 -9 -3
194 -9 -3
195 -9 -3
196 -9 -3
197 4 17
198 4 17
199 4 17
200 -42 18
201 -42 18
202 -42 18
203 -42 18
204 -42 18
205 -42 18
206 -42 18
207 -12 9
208 -12 9
209 -12 9
210 -12 9
211 -12 9
212 -12 9
213 -12 9
214 19 13
215 19 13
216 19 13
217 19 13
218 19 13
219 19 13
220 19 13
221 19 -30
222 19 -30
223 19 -30
224 19 -30
225 19 -30
226 19 -30
227 28 -50
228 28 -50
229 28 -50
230 28 -50
231 28 -50
232 6 -49
233 6 -49
234 6 -49
235 6 -49
236 6 -49
237 34 27
238 34 27
239 34 27
240 34 27
241 -30 30
242 -30 30
243 -30 30
244 -30 30
245 -30 30
246 23 -35
247 23 -35
248 23 -35
249 23 -35
250 23 -35
251 23 -35
252 23 -35
253 17 37
254 17 37
255 17 37
256 17 37
257 -21 28
258 -21 28
259 -21 28
260 -21 28
261 -21 28
262 -21 28
263 -21 28
264 8 -30
265 8 -30
266 8 -30
267 8 -30
268 8 -30
269 8 -30
270 -31 -23
271 35 29
272 35 29
273 35 29
274 35 29
275 24 -2
276 24 -2
277 24 -2
278 24 -2
279 -21 -23
280 -21 -23
281 -21 -23
282 -21 -23
283 -21 -23
284 -21 -23
285 -21 -23
286 49 42
287 49 42
288 49 42
289 49 42
290 33 -41
291 33 -41
292 33 -41
293 33 -41
294 33 -41
295 -48 36
296 -48 36
297 -48 36
298 -48 36
299 -48 36
300 46 -1
301 46 -1
302 46 -1
303 46 -1
304 46 -1
305 35 17
306 35 17
307 35 17
308 35 17
309 35 17
310 35 17
311 35 17
312 7 -16
313 7 -16
314 7 -16
315 7 -16
316 7 -16
317 38 -50
318 38 -50
319 38 -50
320 38 -50
321 38 -50
322 21 -24
323 21 -24
324 21 -24
325 21 -24
326 21 -24
327 2 -49
328 2 -49
329 2 -49
330 2 -49
331 2 -49
332 2 -49
333 2 -49
334 2 -49
335 3 -22
336 3 -22
337 3 -22
338 3 -22
339 -2 -16
340 -2 -16
341 -2 -16
342 -2 -16
343 -2 -16
344 -2 -16
345 -2 -16
346 -34 43
347 -34 43
348 -34 43
349 -33 25
350 -33 25
351 -33 25
352 -33 25
353 -33 25
354 -33 25
355 28 -40
356 28 -40
357 28 -40
358 28 -40
359 28 -40
360 28 -40
361 44 -6
362 44 -6
363 44 -6
364 44 -6
365 44 -6
366 -13 -44
367 -13 -44
368 -13 -44
369 -13 -44
370 -13 -44
371 42 18
372 42 18
373 42 18
DEMAND_SECTION
1 0
2 28
3 7
4 1
5 1
6 28
7 14
8 28
9 14
10 1
11 14
12 7
13 28
14 14
15 1
16 1
17 1
18 1
19 14
20 7
21 1
22 1
23 28
24 14
25 7
26 1
27 1
28 28
29 14
30 7
31 1
32 1
33 1
34 1
35 1
36 28
37 28
38 28
39 14
40 1
41 28
42 14
43 7
44 14
45 7
46 1
47 1
48 1
49 28
50 14
51 28
52 7
53 14
54 7
55 28
56 14
57 7
58 1
59 1
60 1
61 1
62 14
63 7
64 1
65 1
66 1
67 1
68 28
69 28
70 1
71 1
72 1
73 28
74 28
75 7
76 14
77 7
78 1
79 1
80 1
81 1
82 1
83 28
84 14
85 1
86 1
87 1
88 1
89 1
90 1
91 14
92 7
93 1
94 1
95 1
96 1
97 1
98 14
99 7
100 1
101 1
102 1
103 28
104 28
105 1
106 1
107 28
108 7
109 1
110 1
111 1
112 28
113 7
114 1
115 1
116 1
117 14
118 1
119 1
120 1
121 1
122 1
123 1
124 28
125 1
126 1
127 1
128 1
129 1
130 28
131 1
132 1
133 1
134 28
135 7
136 1
137 1
138 1
139 14
140 7
141 1
142 28
143 1
144 28
145 14
146 7
147 1
148 1
149 1
150 1
151 1
152 14
153 7
154 1
155 1
156 1
157 1
158 14
159 1
160 1
161 1
162 1
163 28
164 14
165 1
166 1
167 1
168 1
169 1
170 28
171 28
172 1
173 1
174 1
175 1
176 28
177 28
178 7
179 1
180 1
181 1
182 1
183 1
184 1
185 28
186 28
187 7
188 1
189 1
190 1
191 1
192 1
193 28
194 28
195 1
196 1
197 28
198 28
199 7
200 14
201 1
202 1
203 1
204 1
205 1
206 1
207 14
208 7
209 1
210 1
211 1
212 1
213 1
214 14
215 1
216 1
217 1
218 1
219 1
220 1
221 28
222 28
223 7
224 1
225 1
226 1
227 28
228 7
229 1
230 1
231 1
232 14
233 7
234 1
235 1
236 1
237 28
238 28
239 1
240 1
241 28
242 14
243 1
244 1
245 1
246 28
247 7
248 1
249 1
250 1
251 1
252 1
253 28
254 28
255 7
256 1
257 14
258 7
259 1
260 1
261 1
262 1
263 1
264 28
265 14
266 1
267 1
268 1
269 1
270 28
271 28
272 14
273 7
274 1
275 28
276 1
277 1
278 1
279 28
280 28
281 7
282 1
283 1
284 1
285 1
286 28
287 28
288 7
289 1
290 28
291 1
292 1
293 1
294 1
295 14
296 7
297 1
298 1
299 1
300 28
301 7
302 1
303 1
304 1
305 14
306 7
307 1
308 1
309 1
310 1
311 1
312 14
313 7
314 1
315 1
316 1
317 28
318 1
319 1
320 1
321 1
322 14
323 1
324 1
325 1
326 1
327 14
328 7
329 1
330 1
331 1
332 1
333 1
334 1
335 28
336 14
337 1
338 1
339 14
340 1
341 1
342 1
343 1
344 1
345 1
346 28
347 28
348 7
349 14
350 1
351 1
352 1
353 1
354 1
355 28
356 28
357 1
358 1
359 1
360 1
361 28
362 1
363 1
364 1
365 1
366 28
367 1
368 1
369 1
370 1
371 28
372 14
373 1
DEPOT_SECTION
1
-1
EOF