SDVRP instances/custom_instances/p02_25_split0.sol
372 -1 279 281 280 278 48 49 -4 3 2 70 69 68 67 71 115 112 114 113 111 131 129 130 132 283 282 284 -5 313 314 312 315 311 335 334 37 39 38 -6 247 251 228 226 229 230 227 320 319 316 317 318 138 139 140 293 292 289 291 290 -8 7 9 368 369 366 365 367 173 174 171 169 172 170 343 340 339 344 -11 10 270 271 272 273 238 237 236 239 -24 26 22 25 23 163 167 165 164 166 168 162 -28 31 29 32 33 27 34 30 80 81 76 75 77 79 78 42 40 41 -36 286 287 285 288 157 159 161 158 160 54 -47 45 43 46 44 136 134 137 133 135 204 199 200 202 203 205 201 107 110 108 106 109 209 206 212 211 210 -51 50 192 195 194 193 -72 74 73 364 363 361 362 360 303 301 300 299 302 -89 87 83 85 82 88 86 84 186 187 191 185 190 188 189 184 101 97 100 99 98 -105 103 104 102 60 59 55 57 56 58 18 19 20 21 269 -118 119 116 117 121 122 120 371 372 370 35 306 309 305 310 308 307 304 213 218 217 215 214 219 216 -124 127 126 123 125 128 -142 141 66 63 64 65 62 61 324 321 323 322 325 223 225 220 221 222 224 -146 144 145 147 143 149 148 150 241 240 243 242 244 257 261 259 262 256 260 258 -181 179 178 183 180 176 175 182 177 90 93 91 96 92 95 94 275 276 277 274 -196 198 197 254 252 253 255 -207 208 353 350 349 348 351 352 296 295 294 298 297 151 152 156 153 155 154 345 346 347 -245 249 250 248 246 354 358 359 357 355 356 264 263 -337 336 52 53 268 265 266 267 15 13 14 12 16 17 232 231 234 233 235 332 331 327 328 326 330 333 329 341 342 338 0 





OBJ=
2171.229
BEST_KNOWN=
0.000